
Gurobi 11.0.1 (win64) logging started Tue Mar 12 21:16:21 2024

Set parameter LogFile to value "C:\Projetos\Job_Rotation_Algorithms\Outputs\GurobiLogs\gurobi_log-output-12_ros-c28-CostaMirallesModel-NoExtraConstraint-2.log"
Gurobi Optimizer version 11.0.1 build v11.0.1rc0 (win64 - Windows 10.0 (19045.2))

CPU model: 11th Gen Intel(R) Core(TM) i7-1165G7 @ 2.80GHz, instruction set [SSE2|AVX|AVX2|AVX512]
Thread count: 4 physical cores, 8 logical processors, using up to 1 threads


Gurobi 11.0.1 (win64) logging started Tue Mar 12 22:30:44 2024

Set parameter LogFile to value "C:\Projetos\Job_Rotation_Algorithms\Outputs\GurobiLogs\gurobi_log-output-12_ros-c28-CostaMirallesModel-NoExtraConstraint-2.log"
Gurobi Optimizer version 11.0.1 build v11.0.1rc0 (win64 - Windows 10.0 (19045.2))

CPU model: 11th Gen Intel(R) Core(TM) i7-1165G7 @ 2.80GHz, instruction set [SSE2|AVX|AVX2|AVX512]
Thread count: 4 physical cores, 8 logical processors, using up to 1 threads

WLS license 901038 - registered to Bitka Analytics
Optimize a model with 413 rows, 772 columns and 6048 nonzeros
Model fingerprint: 0x6081c855
Variable types: 2 continuous, 770 integer (770 binary)
Coefficient statistics:
  Matrix range     [1e+00, 3e+01]
  Objective range  [1e+00, 1e+00]
  Bounds range     [1e+00, 6e+01]
  RHS range        [1e+00, 6e+01]
Presolve removed 49 rows and 143 columns
Presolve time: 0.03s
Presolved: 364 rows, 629 columns, 4448 nonzeros
Variable types: 0 continuous, 629 integer (628 binary)

Root relaxation: objective 5.000000e+01, 307 iterations, 0.00 seconds (0.00 work units)

    Nodes    |    Current Node    |     Objective Bounds      |     Work
 Expl Unexpl |  Obj  Depth IntInf | Incumbent    BestBd   Gap | It/Node Time

     0     0   50.00000    0   18          -   50.00000      -     -    0s
     0     0   50.00000    0  153          -   50.00000      -     -    0s
     0     0   50.00000    0  150          -   50.00000      -     -    0s
     0     0   50.00000    0   15          -   50.00000      -     -    0s
     0     0   50.00000    0   47          -   50.00000      -     -    0s
     0     0   50.00000    0   29          -   50.00000      -     -    0s
     0     0   50.00000    0   67          -   50.00000      -     -    0s
     0     0   50.00000    0   56          -   50.00000      -     -    0s
     0     0   50.00000    0   18          -   50.00000      -     -    0s
     0     2   50.00000    0   18          -   50.00000      -     -    0s
H  486    61                      27.0000000   50.00000  85.2%  89.7    1s

Cutting planes:
  Gomory: 5
  Cover: 648
  Implied bound: 78
  Clique: 76
  MIR: 41
  StrongCG: 7
  GUB cover: 22
  Inf proof: 4
  Zero half: 11
  RLT: 9

Explored 855 nodes (92490 simplex iterations) in 3.39 seconds (3.01 work units)
Thread count was 1 (of 8 available processors)

Solution count 1: 27 

Optimal solution found (tolerance 1.00e-03)
Best objective 2.700000000000e+01, best bound 2.700000000000e+01, gap 0.0000%
